sat
(:binary-propagations  1128
 :decisions            2169
 :del-clause           194
 :final-checks         13
 :max-generation       1
 :max-memory           25.25
 :memory               21.62
 :mk-bool-var          1203
 :mk-clause            330
 :mk-clause-binary     808
 :num-allocs           42774976
 :num-checks           1
 :propagations         1429
 :quant-instantiations 195
 :restarts             12
 :rlimit-count         814222
 :time                 0.10)
